max: 420 XP1L +360 XP1M +300 XP1S +420 XP2L +360 XP2M +300 XP2S +420 XP3L +360 XP3M +300 XP3S;
Storage_Plant1: +20 XP1L +15 XP1M +12 XP1S <= 13000;
Storage_Plant2: +20 XP2L +15 XP2M +12 XP2S <= 12000;
Storage_Plant3: +20 XP3L +15 XP3M +12 XP3S <= 5000;

Excess_Cap_Plant1: +XP1L +XP1M +XP1S <= 750;
Excess_Cap_Plant2: +XP2L +XP2M +XP2S <= 900;
Excess_Cap_Plant3: +XP3L +XP3M +XP3S <= 450;

Sales_Large: +XP1L +XP2L +XP3L <= 900;
Sales_Medium: +XP1M +XP2M +XP3M <= 1200;
Sales_Small: +XP1S +XP2S +XP3S <= 750;

Percent_P1_P2: 0.0013 XP1L +0.0013 XP1M +0.0013 XP1S - 0.0011 XP2L -0.0011 XP2M -0.0011 XP2S = 0;
Percent_P1_P3: 0.0013 XP1L +0.0013 XP1M +0.0013 XP1S - 0.0022 XP3L -0.0022 XP3M -0.0022 XP3S = 0;
